p cnf 41 507
c at least one value
1 2 3 4 5 0
6 7 8 9 10 0
11 12 13 14 15 0
16 17 18 19 20 0
21 22 23 24 25 0
26 27 28 29 0
30 31 32 33 0
34 35 36 37 0
38 39 40 41 0
c at most one value
-1 -2 0
-1 -3 0
-1 -4 0
-1 -5 0
-2 -3 0
-2 -4 0
-2 -5 0
-3 -4 0
-3 -5 0
-4 -5 0
-6 -7 0
-6 -8 0
-6 -9 0
-6 -10 0
-7 -8 0
-7 -9 0
-7 -10 0
-8 -9 0
-8 -10 0
-9 -10 0
-11 -12 0
-11 -13 0
-11 -14 0
-11 -15 0
-12 -13 0
-12 -14 0
-12 -15 0
-13 -14 0
-13 -15 0
-14 -15 0
-16 -17 0
-16 -18 0
-16 -19 0
-16 -20 0
-17 -18 0
-17 -19 0
-17 -20 0
-18 -19 0
-18 -20 0
-19 -20 0
-21 -22 0
-21 -23 0
-21 -24 0
-21 -25 0
-22 -23 0
-22 -24 0
-22 -25 0
-23 -24 0
-23 -25 0
-24 -25 0
-26 -27 0
-26 -28 0
-26 -29 0
-27 -28 0
-27 -29 0
-28 -29 0
-30 -31 0
-30 -32 0
-30 -33 0
-31 -32 0
-31 -33 0
-32 -33 0
-34 -35 0
-34 -36 0
-34 -37 0
-35 -36 0
-35 -37 0
-36 -37 0
-38 -39 0
-38 -40 0
-38 -41 0
-39 -40 0
-39 -41 0
-40 -41 0
c graceful clauses
-1 -6 -26 0
-1 -6 -27 0
-1 -6 -28 0
-1 -6 -29 0
-1 -7 -27 0
-1 -7 -28 0
-1 -7 -29 0
-1 -8 -26 0
-1 -8 -28 0
-1 -8 -29 0
-1 -9 -26 0
-1 -9 -27 0
-1 -9 -29 0
-1 -10 -26 0
-1 -10 -27 0
-1 -10 -28 0
-2 -6 -27 0
-2 -6 -28 0
-2 -6 -29 0
-2 -7 -26 0
-2 -7 -27 0
-2 -7 -28 0
-2 -7 -29 0
-2 -8 -27 0
-2 -8 -28 0
-2 -8 -29 0
-2 -9 -26 0
-2 -9 -28 0
-2 -9 -29 0
-2 -10 -26 0
-2 -10 -27 0
-2 -10 -29 0
-3 -6 -26 0
-3 -6 -28 0
-3 -6 -29 0
-3 -7 -27 0
-3 -7 -28 0
-3 -7 -29 0
-3 -8 -26 0
-3 -8 -27 0
-3 -8 -28 0
-3 -8 -29 0
-3 -9 -27 0
-3 -9 -28 0
-3 -9 -29 0
-3 -10 -26 0
-3 -10 -28 0
-3 -10 -29 0
-4 -6 -26 0
-4 -6 -27 0
-4 -6 -29 0
-4 -7 -26 0
-4 -7 -28 0
-4 -7 -29 0
-4 -8 -27 0
-4 -8 -28 0
-4 -8 -29 0
-4 -9 -26 0
-4 -9 -27 0
-4 -9 -28 0
-4 -9 -29 0
-4 -10 -27 0
-4 -10 -28 0
-4 -10 -29 0
-5 -6 -26 0
-5 -6 -27 0
-5 -6 -28 0
-5 -7 -26 0
-5 -7 -27 0
-5 -7 -29 0
-5 -8 -26 0
-5 -8 -28 0
-5 -8 -29 0
-5 -9 -27 0
-5 -9 -28 0
-5 -9 -29 0
-5 -10 -26 0
-5 -10 -27 0
-5 -10 -28 0
-5 -10 -29 0
-6 -11 -30 0
-6 -11 -31 0
-6 -11 -32 0
-6 -11 -33 0
-6 -12 -31 0
-6 -12 -32 0
-6 -12 -33 0
-6 -13 -30 0
-6 -13 -32 0
-6 -13 -33 0
-6 -14 -30 0
-6 -14 -31 0
-6 -14 -33 0
-6 -15 -30 0
-6 -15 -31 0
-6 -15 -32 0
-7 -11 -31 0
-7 -11 -32 0
-7 -11 -33 0
-7 -12 -30 0
-7 -12 -31 0
-7 -12 -32 0
-7 -12 -33 0
-7 -13 -31 0
-7 -13 -32 0
-7 -13 -33 0
-7 -14 -30 0
-7 -14 -32 0
-7 -14 -33 0
-7 -15 -30 0
-7 -15 -31 0
-7 -15 -33 0
-8 -11 -30 0
-8 -11 -32 0
-8 -11 -33 0
-8 -12 -31 0
-8 -12 -32 0
-8 -12 -33 0
-8 -13 -30 0
-8 -13 -31 0
-8 -13 -32 0
-8 -13 -33 0
-8 -14 -31 0
-8 -14 -32 0
-8 -14 -33 0
-8 -15 -30 0
-8 -15 -32 0
-8 -15 -33 0
-9 -11 -30 0
-9 -11 -31 0
-9 -11 -33 0
-9 -12 -30 0
-9 -12 -32 0
-9 -12 -33 0
-9 -13 -31 0
-9 -13 -32 0
-9 -13 -33 0
-9 -14 -30 0
-9 -14 -31 0
-9 -14 -32 0
-9 -14 -33 0
-9 -15 -31 0
-9 -15 -32 0
-9 -15 -33 0
-10 -11 -30 0
-10 -11 -31 0
-10 -11 -32 0
-10 -12 -30 0
-10 -12 -31 0
-10 -12 -33 0
-10 -13 -30 0
-10 -13 -32 0
-10 -13 -33 0
-10 -14 -31 0
-10 -14 -32 0
-10 -14 -33 0
-10 -15 -30 0
-10 -15 -31 0
-10 -15 -32 0
-10 -15 -33 0
-11 -16 -34 0
-11 -16 -35 0
-11 -16 -36 0
-11 -16 -37 0
-11 -17 -35 0
-11 -17 -36 0
-11 -17 -37 0
-11 -18 -34 0
-11 -18 -36 0
-11 -18 -37 0
-11 -19 -34 0
-11 -19 -35 0
-11 -19 -37 0
-11 -20 -34 0
-11 -20 -35 0
-11 -20 -36 0
-12 -16 -35 0
-12 -16 -36 0
-12 -16 -37 0
-12 -17 -34 0
-12 -17 -35 0
-12 -17 -36 0
-12 -17 -37 0
-12 -18 -35 0
-12 -18 -36 0
-12 -18 -37 0
-12 -19 -34 0
-12 -19 -36 0
-12 -19 -37 0
-12 -20 -34 0
-12 -20 -35 0
-12 -20 -37 0
-13 -16 -34 0
-13 -16 -36 0
-13 -16 -37 0
-13 -17 -35 0
-13 -17 -36 0
-13 -17 -37 0
-13 -18 -34 0
-13 -18 -35 0
-13 -18 -36 0
-13 -18 -37 0
-13 -19 -35 0
-13 -19 -36 0
-13 -19 -37 0
-13 -20 -34 0
-13 -20 -36 0
-13 -20 -37 0
-14 -16 -34 0
-14 -16 -35 0
-14 -16 -37 0
-14 -17 -34 0
-14 -17 -36 0
-14 -17 -37 0
-14 -18 -35 0
-14 -18 -36 0
-14 -18 -37 0
-14 -19 -34 0
-14 -19 -35 0
-14 -19 -36 0
-14 -19 -37 0
-14 -20 -35 0
-14 -20 -36 0
-14 -20 -37 0
-15 -16 -34 0
-15 -16 -35 0
-15 -16 -36 0
-15 -17 -34 0
-15 -17 -35 0
-15 -17 -37 0
-15 -18 -34 0
-15 -18 -36 0
-15 -18 -37 0
-15 -19 -35 0
-15 -19 -36 0
-15 -19 -37 0
-15 -20 -34 0
-15 -20 -35 0
-15 -20 -36 0
-15 -20 -37 0
-16 -21 -38 0
-16 -21 -39 0
-16 -21 -40 0
-16 -21 -41 0
-16 -22 -39 0
-16 -22 -40 0
-16 -22 -41 0
-16 -23 -38 0
-16 -23 -40 0
-16 -23 -41 0
-16 -24 -38 0
-16 -24 -39 0
-16 -24 -41 0
-16 -25 -38 0
-16 -25 -39 0
-16 -25 -40 0
-17 -21 -39 0
-17 -21 -40 0
-17 -21 -41 0
-17 -22 -38 0
-17 -22 -39 0
-17 -22 -40 0
-17 -22 -41 0
-17 -23 -39 0
-17 -23 -40 0
-17 -23 -41 0
-17 -24 -38 0
-17 -24 -40 0
-17 -24 -41 0
-17 -25 -38 0
-17 -25 -39 0
-17 -25 -41 0
-18 -21 -38 0
-18 -21 -40 0
-18 -21 -41 0
-18 -22 -39 0
-18 -22 -40 0
-18 -22 -41 0
-18 -23 -38 0
-18 -23 -39 0
-18 -23 -40 0
-18 -23 -41 0
-18 -24 -39 0
-18 -24 -40 0
-18 -24 -41 0
-18 -25 -38 0
-18 -25 -40 0
-18 -25 -41 0
-19 -21 -38 0
-19 -21 -39 0
-19 -21 -41 0
-19 -22 -38 0
-19 -22 -40 0
-19 -22 -41 0
-19 -23 -39 0
-19 -23 -40 0
-19 -23 -41 0
-19 -24 -38 0
-19 -24 -39 0
-19 -24 -40 0
-19 -24 -41 0
-19 -25 -39 0
-19 -25 -40 0
-19 -25 -41 0
-20 -21 -38 0
-20 -21 -39 0
-20 -21 -40 0
-20 -22 -38 0
-20 -22 -39 0
-20 -22 -41 0
-20 -23 -38 0
-20 -23 -40 0
-20 -23 -41 0
-20 -24 -39 0
-20 -24 -40 0
-20 -24 -41 0
-20 -25 -38 0
-20 -25 -39 0
-20 -25 -40 0
-20 -25 -41 0
c create alldiff
-1 -6 0
-2 -7 0
-3 -8 0
-4 -9 0
-5 -10 0
-1 -11 0
-2 -12 0
-3 -13 0
-4 -14 0
-5 -15 0
-1 -16 0
-2 -17 0
-3 -18 0
-4 -19 0
-5 -20 0
-1 -21 0
-2 -22 0
-3 -23 0
-4 -24 0
-5 -25 0
-6 -11 0
-7 -12 0
-8 -13 0
-9 -14 0
-10 -15 0
-6 -16 0
-7 -17 0
-8 -18 0
-9 -19 0
-10 -20 0
-6 -21 0
-7 -22 0
-8 -23 0
-9 -24 0
-10 -25 0
-11 -16 0
-12 -17 0
-13 -18 0
-14 -19 0
-15 -20 0
-11 -21 0
-12 -22 0
-13 -23 0
-14 -24 0
-15 -25 0
-16 -21 0
-17 -22 0
-18 -23 0
-19 -24 0
-20 -25 0
c create alldiff
-26 -30 0
-27 -31 0
-28 -32 0
-29 -33 0
-26 -34 0
-27 -35 0
-28 -36 0
-29 -37 0
-26 -38 0
-27 -39 0
-28 -40 0
-29 -41 0
-30 -34 0
-31 -35 0
-32 -36 0
-33 -37 0
-30 -38 0
-31 -39 0
-32 -40 0
-33 -41 0
-34 -38 0
-35 -39 0
-36 -40 0
-37 -41 0
c break symmetry[[1, 2, 3, 4, 5], [21, 22, 23, 24, 25]]
-2 -21 0
-3 -21 0
-3 -22 0
-4 -21 0
-4 -22 0
-4 -23 0
-5 -21 0
-5 -22 0
-5 -23 0
-5 -24 0
c break symmetry[[16, 17, 18, 19, 20], [21, 22, 23, 24, 25]]
-17 -21 0
-18 -21 0
-18 -22 0
-19 -21 0
-19 -22 0
-19 -23 0
-20 -21 0
-20 -22 0
-20 -23 0
-20 -24 0
c break symmetry[[6, 7, 8, 9, 10], [1, 2, 3, 4, 5]]
-7 -1 0
-8 -1 0
-8 -2 0
-9 -1 0
-9 -2 0
-9 -3 0
-10 -1 0
-10 -2 0
-10 -3 0
-10 -4 0
